% Data file generated from RandomInstances/14_0.40_1.col DIMACS file
size = 14;

chi = 5;

adjacency = [|0,1,1,1,1,0,0,1,0,0,1,1,0,1,
|1,0,0,0,0,0,1,0,0,0,0,1,0,1,
|1,0,0,1,0,0,1,0,1,0,0,1,1,1,
|1,0,1,0,0,1,1,1,1,1,0,0,1,0,
|1,0,0,0,0,1,1,1,0,0,0,1,1,0,
|0,0,0,1,1,0,1,1,1,0,0,1,0,0,
|0,1,1,1,1,1,0,1,0,0,0,0,1,0,
|1,0,0,1,1,1,1,0,0,1,1,1,0,0,
|0,0,1,1,0,1,0,0,0,1,1,0,1,0,
|0,0,0,1,0,0,0,1,1,0,1,1,1,0,
|1,0,0,0,0,0,0,1,1,1,0,1,1,0,
|1,1,1,0,1,1,0,1,0,1,1,0,1,0,
|0,0,1,1,1,0,1,0,1,1,1,1,0,1,
|1,1,1,0,0,0,0,0,0,0,0,0,1,0,
|];